TCS_Benchmarks/redos_fix/snort3_output_distinct_4536_4535_0_0.txt
[^#]*
([^#]*)([qQ][uU][eE][rR][yY]=)([^#]*)
[^#]*